3 32 1 10
4 9 13 9 20 1 2 20 14 1 12 6 15 4 7 11 6 1 6 5 17 9 17 19 17 14 6 3 8 17 6 16 
10.98 9.6 3.76 11.21 11.89 13.74 12.69 9.71 8.53 7.57 2.79 0.53 4.2 14.86 9.08 5.12 11.76 0.36 3.21 1.01 10.37 6.24 14.54 15.33 11.72 4.3 14.21 2.21 15.34 8.41 4.39 2.2 
8 8 8 8 8 8 8 8 8 8 8 8 8 8 8 8 8 8 8 8 8 8 8 8 8 8 8 8 8 8 8 8 
3.33 9.32 14.41 4.03 6.23 9.54 1.73 7.77 9.98 9.12 7.66 8.88 3.07 15.01 14.66 3.63 7.68 10.97 15.86 5.75 4.5 2.81 0.95 5.25 14.52 2.42 4.74 3.43 14.78 8.61 7.75 2.68 
1 1 1 1 1 1 1 1 1 1 1 1 1 1 1 1 1 1 1 1 1 1 1 1 1 1 1 1 1 1 1 1 
1 1 1 1 1 1 1 1 1 1 1 1 1 1 1 1 1 1 1 1 1 1 1 1 1 1 1 1 1 1 1 1 
1 1 1 1 1 1 1 1 1 1 1 1 1 1 1 1 1 1 1 1 1 1 1 1 1 1 1 1 1 1 1 1 
0.01 0.01 0.01 0.01 0.01 0.01 0.01 0.01 0.01 0.01 0.01 0.01 0.01 0.01 0.01 0.01 0.01 0.01 0.01 0.01 0.01 0.01 0.01 0.01 0.01 0.01 0.01 0.01 0.01 0.01 0.01 0.01 
0.02 0.02 0.02 0.02 0.02 0.02 0.02 0.02 0.02 0.02 0.02 0.02 0.02 0.02 0.02 0.02 0.02 0.02 0.02 0.02 0.02 0.02 0.02 0.02 0.02 0.02 0.02 0.02 0.02 0.02 0.02 0.02 
1 1 1 1 1 1 1 1 1 1 1 1 1 1 1 1 1 1 1 1 1 1 1 1 1 1 1 1 1 1 1 1 
